0 1
0 7
1 2
1 7
1 8
2 3
2 8
2 9
3 4
3 9
3 10
4 5
4 10
4 11
5 6
5 11
5 12
6 12
6 13
7 8
7 14
8 9
8 14
8 15
9 10
9 15
9 16
10 11
10 16
10 17
11 12
11 17
11 18
12 13
12 18
12 19
13 19
13 20
14 15
14 21
15 16
15 21
15 22
16 17
16 22
16 23
17 18
17 23
17 24
18 19
18 24
18 25
19 20
19 25
19 26
20 26
20 27
21 22
21 28
22 23
22 28
22 29
23 24
23 29
23 30
24 25
24 30
24 31
25 26
25 31
25 32
26 27
26 32
26 33
27 33
27 34
28 29
28 35
29 30
29 35
29 36
30 31
30 36
30 37
31 32
31 37
31 38
32 33
32 38
32 39
33 34
33 39
33 40
34 40
34 41
35 36
35 42
36 37
36 42
36 43
37 38
37 43
37 44
38 39
38 44
38 45
39 40
39 45
39 46
40 41
40 46
40 47
41 47
41 48
42 43
43 44
44 45
45 46
46 47
47 48
