0 1
0 7
1 2
1 7
1 8
1 9
2 3
2 9
3 4
3 9
3 10
3 11
4 5
4 11
5 6
5 11
5 12
5 13
6 13
7 8
7 14
7 15
8 9
8 15
9 10
9 15
9 16
9 17
10 11
10 17
11 12
11 17
11 18
11 19
12 13
12 19
13 19
13 20
14 15
14 21
15 16
15 21
15 22
15 23
16 17
16 23
17 18
17 23
17 24
17 25
18 19
18 25
19 20
19 25
19 26
19 27
20 27
21 22
21 28
21 29
22 23
22 29
23 24
23 29
23 30
23 31
24 25
24 31
25 26
25 31
25 32
25 33
26 27
26 33
27 33
27 34
28 29
28 35
29 30
29 35
29 36
29 37
30 31
30 37
31 32
31 37
31 38
31 39
32 33
32 39
33 34
33 39
33 40
33 41
34 41
35 36
35 42
35 43
36 37
36 43
37 38
37 43
37 44
37 45
38 39
38 45
39 40
39 45
39 46
39 47
40 41
40 47
41 47
41 48
42 43
43 44
44 45
45 46
46 47
47 48
